% demand
num_movements = 26;
loading_factor = [1450, 850, 1550, 1000, 1350, 800, 1400, 1550, 1400, 1000, 2000, 1200, 1000, 2000, 1500, 1450, 1150, 900, 950, 800, 1150, 1550, 1850, 1400, 950, 1050];
pickup_time = [0, 0, 0, 0, 0, 0, 1, 1, 1, 2, 2, 2, 3, 4, 4, 4, 4, 4, 5, 6, 7, 7, 8, 8, 8, 8];
delivery_time = [1, 1, 1, 3, 1, 1, 2, 2, 2, 3, 3, 3, 4, 8, 8, 5, 6, 5, 6, 8, 9, 8, 9, 9, 10, 9];

% transporter definition
total_capacity = 7000;
num_decks = 3;
capacity = [3000, 1000, 3000];

% ways out of decks
num_ways_out = 1;
paths_out = array3d(decks, ways_out, decks, [
% ways out of deck d1
2, 3, 0, 

% ways out of deck d2
3, 0, 0, 

% ways out of deck d3
0, 0, 0,	

]);

